[[26, 76, 67, 34, 46, 52, 8, 7, 35, 54, 19, 53, 14, 59, 11, 66, 65, 38], [10, 31, 58, 72, 39, 12, 40, 32, 9, 25, 55, 50, 18], [24, 44, 3, 51, 16, 63, 49, 23, 56, 43, 41, 42, 64], [22, 62, 73, 33, 2, 30, 74, 28, 61, 21, 48, 47, 69, 36], [71, 60, 70, 20, 37, 5, 15, 57, 13, 27, 29, 45, 4, 75, 68, 6, 17]]